c Random generated cnf formula, satisfiable: true
p cnf 10 50
6 10 4 0
10 5 3 0
-6 8 -9 0
8 -7 -9 0
-9 3 5 0
-3 7 4 0
-8 2 -9 0
1 10 7 0
1 10 -6 0
9 5 8 0
-6 -1 -3 0
6 7 8 0
9 10 -7 0
8 -5 4 0
-10 3 -7 0
5 -6 -9 0
6 -8 4 0
8 -5 -6 0
-2 -9 -8 0
-6 9 5 0
-8 4 -1 0
-9 -1 -7 0
4 -9 -3 0
8 -7 -3 0
9 -5 8 0
4 -8 -5 0
9 -2 -7 0
7 3 1 0
-2 5 10 0
-8 6 1 0
1 -3 7 0
-5 -10 -6 0
7 8 10 0
-9 -1 -10 0
5 10 6 0
-6 9 -10 0
-9 1 -5 0
3 -10 -5 0
-10 -5 3 0
7 2 -10 0
4 7 1 0
-10 5 -9 0
-1 -3 -6 0
-7 5 -10 0
9 5 3 0
4 -6 5 0
-6 10 -3 0
7 5 9 0
-10 -8 -3 0
8 -7 2 0
